Welcome to the CBC MILP Solver 
Version: Trunk
Build Date: Apr 16 2020 

Starting solution of the Linear programming relaxation problem using Primal Simplex

Using Python-MIP package version 1.8.1
Machines:  4 Jobs:  4
Order: 
Job  0 : machine 0 ( 10 ) machine 3 ( 1 ) machine 2 ( 6 ) machine 1 ( 7 ) 
Job  1 : machine 0 ( 1 ) machine 3 ( 7 ) machine 1 ( 5 ) machine 2 ( 8 ) 
Job  2 : machine 3 ( 9 ) machine 2 ( 3 ) machine 1 ( 7 ) machine 0 ( 1 ) 
Job  3 : machine 1 ( 7 ) machine 3 ( 3 ) machine 0 ( 9 ) machine 2 ( 10 ) 
K:  44
Job  0 , e: machine  0 ( 0 ) machine  1 ( 17 ) machine  2 ( 11 ) machine  3 ( 10 ) 
Job  1 , e: machine  0 ( 0 ) machine  1 ( 8 ) machine  2 ( 13 ) machine  3 ( 1 ) 
Job  2 , e: machine  0 ( 19 ) machine  1 ( 12 ) machine  2 ( 9 ) machine  3 ( 0 ) 
Job  3 , e: machine  0 ( 10 ) machine  1 ( 0 ) machine  2 ( 19 ) machine  3 ( 7 ) 
Job  0 , f: machine  0 ( 14 ) machine  1 ( 0 ) machine  2 ( 7 ) machine  3 ( 13 ) 
Job  1 , f: machine  0 ( 20 ) machine  1 ( 8 ) machine  2 ( 0 ) machine  3 ( 13 ) 
Job  2 , f: machine  0 ( 0 ) machine  1 ( 1 ) machine  2 ( 8 ) machine  3 ( 11 ) 
Job  3 , f: machine  0 ( 10 ) machine  1 ( 22 ) machine  2 ( 0 ) machine  3 ( 19 ) 
EST and LST:
Job: 0 Machine: 0 EST: 0 LST: 20
Job: 0 Machine: 1 EST: 17 LST: 37
Job: 0 Machine: 2 EST: 11 LST: 31
Job: 0 Machine: 3 EST: 10 LST: 30
Job: 1 Machine: 0 EST: 0 LST: 23
Job: 1 Machine: 1 EST: 8 LST: 31
Job: 1 Machine: 2 EST: 13 LST: 36
Job: 1 Machine: 3 EST: 1 LST: 24
Job: 2 Machine: 0 EST: 19 LST: 43
Job: 2 Machine: 1 EST: 12 LST: 36
Job: 2 Machine: 2 EST: 9 LST: 33
Job: 2 Machine: 3 EST: 0 LST: 24
Job: 3 Machine: 0 EST: 10 LST: 25
Job: 3 Machine: 1 EST: 0 LST: 15
Job: 3 Machine: 2 EST: 19 LST: 34
Job: 3 Machine: 3 EST: 7 LST: 22
Order:
Job: 0 Machine: 0 = 0 
Job: 0 Machine: 1 = 3 
Job: 0 Machine: 2 = 2 
Job: 0 Machine: 3 = 1 
Job: 1 Machine: 0 = 0 
Job: 1 Machine: 1 = 2 
Job: 1 Machine: 2 = 3 
Job: 1 Machine: 3 = 1 
Job: 2 Machine: 0 = 3 
Job: 2 Machine: 1 = 2 
Job: 2 Machine: 2 = 1 
Job: 2 Machine: 3 = 0 
Job: 3 Machine: 0 = 2 
Job: 3 Machine: 1 = 0 
Job: 3 Machine: 2 = 3 
Job: 3 Machine: 3 = 1 
Distances:
Job 0, Machine 0 -> Machine 3: distance 10
Job 0, Machine 0 -> Machine 2: distance 11
Job 0, Machine 0 -> Machine 1: distance 17
Job 0, Machine 3 -> Machine 2: distance 1
Job 0, Machine 3 -> Machine 1: distance 7
Job 0, Machine 2 -> Machine 1: distance 6
Job 1, Machine 0 -> Machine 3: distance 1
Job 1, Machine 0 -> Machine 1: distance 8
Job 1, Machine 0 -> Machine 2: distance 13
Job 1, Machine 3 -> Machine 1: distance 7
Job 1, Machine 3 -> Machine 2: distance 12
Job 1, Machine 1 -> Machine 2: distance 5
Job 2, Machine 3 -> Machine 2: distance 9
Job 2, Machine 3 -> Machine 1: distance 12
Job 2, Machine 3 -> Machine 0: distance 19
Job 2, Machine 2 -> Machine 1: distance 3
Job 2, Machine 2 -> Machine 0: distance 10
Job 2, Machine 1 -> Machine 0: distance 7
Job 3, Machine 1 -> Machine 3: distance 7
Job 3, Machine 1 -> Machine 0: distance 10
Job 3, Machine 1 -> Machine 2: distance 19
Job 3, Machine 3 -> Machine 0: distance 3
Job 3, Machine 3 -> Machine 2: distance 12
Job 3, Machine 0 -> Machine 2: distance 9
McCormic linearization
[(0, 0), (3, 0), (3, 1), (2, 1), (2, 0), (1, 0), (1, 1)]
obj:  0.6000000000000001
solutions:  1
+ x(0,0) + 0.1x(1,0) 
C:  29.0
x(0,0) = 0.73	 x(0,1) = 19.06	 x(0,2) = 11.73	 x(0,3) = 10.73	 
x(1,0) = 2.73	 x(1,1) = 10.73	 x(1,2) = 20.27	 x(1,3) = 3.73	 
x(2,0) = 24.24	 x(2,1) = 17.24	 x(2,2) = 14.24	 x(2,3) = 5.24	 
x(3,0) = 10.00	 x(3,1) = 0.00	 x(3,2) = 19.00	 x(3,3) = 7.00	 
y(0,1,0) = 0.12	 y(1,0,0) = 0.88	 
y(0,2,0) = 0.56	 y(2,0,0) = 0.44	 
y(0,3,0) = 0.96	 y(3,0,0) = 0.04	 
y(1,2,0) = 0.51	 y(2,1,0) = 0.49	 
y(1,3,0) = 0.74	 y(3,1,0) = 0.26	 
y(2,3,0) = 0.00	 y(3,2,0) = 1.00	 
y(0,1,1) = 0.00	 y(1,0,1) = 1.00	 
y(0,2,1) = 0.20	 y(2,0,1) = 0.80	 
y(0,3,1) = 0.00	 y(3,0,1) = 1.00	 
y(1,2,1) = 0.39	 y(2,1,1) = 0.61	 
y(1,3,1) = 0.16	 y(3,1,1) = 0.84	 
y(2,3,1) = 0.00	 y(3,2,1) = 1.00	 
y(0,1,2) = 0.76	 y(1,0,2) = 0.24	 
y(0,2,2) = 0.46	 y(2,0,2) = 0.54	 
y(0,3,2) = 0.93	 y(3,0,2) = 0.07	 
y(1,2,2) = 0.00	 y(2,1,2) = 1.00	 
y(1,3,2) = 0.28	 y(3,1,2) = 0.72	 
y(2,3,2) = 0.92	 y(3,2,2) = 0.08	 
y(0,1,3) = 0.00	 y(1,0,3) = 1.00	 
y(0,2,3) = 0.15	 y(2,0,3) = 0.85	 
y(0,3,3) = 0.04	 y(3,0,3) = 0.96	 
y(1,2,3) = 0.33	 y(2,1,3) = 0.67	 
y(1,3,3) = 0.26	 y(3,1,3) = 0.74	 
y(2,3,3) = 0.19	 y(3,2,3) = 0.81	 
obj:  0.9174311926605504
solutions:  1
+ 0.09174311926605494x(0,0) + 0.08256880733944953x(3,0) + 0.009174311926605498x(1,0) 
[(0, 0), (3, 0), (3, 1), (2, 1), (2, 0), (1, 0), (1, 1)]
cliques:  1 mip: 56
C:  29.0
x(0,0) = 1.78	 x(0,1) = 18.78	 x(0,2) = 12.78	 x(0,3) = 11.78	 
x(1,0) = 1.24	 x(1,1) = 9.24	 x(1,2) = 21.00	 x(1,3) = 2.24	 
x(2,0) = 19.00	 x(2,1) = 12.00	 x(2,2) = 9.00	 x(2,3) = 0.00	 
x(3,0) = 10.00	 x(3,1) = 0.00	 x(3,2) = 19.00	 x(3,3) = 7.00	 
y(0,1,0) = 0.02	 y(1,0,0) = 0.98	 
y(0,2,0) = 0.61	 y(2,0,0) = 0.39	 
y(0,3,0) = 0.91	 y(3,0,0) = 0.09	 
y(1,2,0) = 0.84	 y(2,1,0) = 0.16	 
y(1,3,0) = 0.68	 y(3,1,0) = 0.32	 
y(2,3,0) = 0.00	 y(3,2,0) = 1.00	 
y(0,1,1) = 0.00	 y(1,0,1) = 1.00	 
y(0,2,1) = 0.01	 y(2,0,1) = 0.99	 
y(0,3,1) = 0.00	 y(3,0,1) = 1.00	 
y(1,2,1) = 0.61	 y(2,1,1) = 0.39	 
y(1,3,1) = 0.09	 y(3,1,1) = 0.91	 
y(2,3,1) = 0.00	 y(3,2,1) = 1.00	 
y(0,1,2) = 0.68	 y(1,0,2) = 0.32	 
y(0,2,2) = 0.06	 y(2,0,2) = 0.94	 
y(0,3,2) = 0.79	 y(3,0,2) = 0.21	 
y(1,2,2) = 0.00	 y(2,1,2) = 1.00	 
y(1,3,2) = 0.26	 y(3,1,2) = 0.74	 
y(2,3,2) = 0.68	 y(3,2,2) = 0.32	 
y(0,1,3) = 0.18	 y(1,0,3) = 0.82	 
y(0,2,3) = 0.13	 y(2,0,3) = 0.87	 
y(0,3,3) = 0.09	 y(3,0,3) = 0.91	 
y(1,2,3) = 0.21	 y(2,1,3) = 0.79	 
y(1,3,3) = 0.32	 y(3,1,3) = 0.68	 
y(2,3,3) = 0.40	 y(3,2,3) = 0.60	 
obj:  0.24903036535839032
solutions:  1
+ 0.11111111111111109x(1,3) + 0.11111111111111112x(2,3) 
[(1, 3), (3, 3), (3, 1), (2, 1), (2, 3), (0, 3), (1, 1)]
cliques:  1 mip: 46
C:  29.639999999999993
x(0,0) = 1.90	 x(0,1) = 19.80	 x(0,2) = 13.80	 x(0,3) = 12.80	 
x(1,0) = 0.00	 x(1,1) = 8.00	 x(1,2) = 13.00	 x(1,3) = 1.00	 
x(2,0) = 27.00	 x(2,1) = 20.00	 x(2,2) = 17.00	 x(2,3) = 8.00	 
x(3,0) = 10.00	 x(3,1) = 0.00	 x(3,2) = 19.00	 x(3,3) = 7.00	 
y(0,1,0) = 0.00	 y(1,0,0) = 1.00	 
y(0,2,0) = 0.82	 y(2,0,0) = 0.18	 
y(0,3,0) = 0.91	 y(3,0,0) = 0.09	 
y(1,2,0) = 0.88	 y(2,1,0) = 0.12	 
y(1,3,0) = 0.75	 y(3,1,0) = 0.25	 
y(2,3,0) = 0.33	 y(3,2,0) = 0.67	 
y(0,1,1) = 0.00	 y(1,0,1) = 1.00	 
y(0,2,1) = 0.28	 y(2,0,1) = 0.72	 
y(0,3,1) = 0.00	 y(3,0,1) = 1.00	 
y(1,2,1) = 0.70	 y(2,1,1) = 0.30	 
y(1,3,1) = 0.04	 y(3,1,1) = 0.96	 
y(2,3,1) = 0.00	 y(3,2,1) = 1.00	 
y(0,1,2) = 0.51	 y(1,0,2) = 0.49	 
y(0,2,2) = 0.32	 y(2,0,2) = 0.68	 
y(0,3,2) = 0.96	 y(3,0,2) = 0.04	 
y(1,2,2) = 0.30	 y(2,1,2) = 0.70	 
y(1,3,2) = 0.92	 y(3,1,2) = 0.08	 
y(2,3,2) = 0.94	 y(3,2,2) = 0.06	 
y(0,1,3) = 0.00	 y(1,0,3) = 1.00	 
y(0,2,3) = 0.18	 y(2,0,3) = 0.82	 
y(0,3,3) = 0.14	 y(3,0,3) = 0.86	 
y(1,2,3) = 0.50	 y(2,1,3) = 0.50	 
y(1,3,3) = 0.73	 y(3,1,3) = 0.27	 
y(2,3,3) = 0.08	 y(3,2,3) = 0.92	 
obj:  0.7560655271696703
solutions:  1
+ 0.062295081967213124x(1,3) + 0.01967213114754099x(3,3) + 0.05901639344262296x(2,3) + 0.00655737704918032x(0,3) 
[(1, 3), (0, 0), (3, 3), (3, 0), (2, 3), (1, 0), (0, 3)]
cliques:  1 mip: 47
C:  31.02816901408451
x(0,0) = 0.99	 x(0,1) = 22.75	 x(0,2) = 16.75	 x(0,3) = 15.75	 
x(1,0) = 0.11	 x(1,1) = 8.11	 x(1,2) = 13.11	 x(1,3) = 1.11	 
x(2,0) = 30.03	 x(2,1) = 23.03	 x(2,2) = 20.03	 x(2,3) = 11.03	 
x(3,0) = 11.99	 x(3,1) = 1.11	 x(3,2) = 20.99	 x(3,3) = 8.99	 
y(0,1,0) = 0.00	 y(1,0,0) = 1.00	 
y(0,2,0) = 0.75	 y(2,0,0) = 0.25	 
y(0,3,0) = 1.00	 y(3,0,0) = 0.00	 
y(1,2,0) = 0.85	 y(2,1,0) = 0.15	 
y(1,3,0) = 0.61	 y(3,1,0) = 0.39	 
y(2,3,0) = 0.38	 y(3,2,0) = 0.62	 
y(0,1,1) = 0.00	 y(1,0,1) = 1.00	 
y(0,2,1) = 0.29	 y(2,0,1) = 0.71	 
y(0,3,1) = 0.00	 y(3,0,1) = 1.00	 
y(1,2,1) = 0.63	 y(2,1,1) = 0.37	 
y(1,3,1) = 0.00	 y(3,1,1) = 1.00	 
y(2,3,1) = 0.00	 y(3,2,1) = 1.00	 
y(0,1,2) = 0.31	 y(1,0,2) = 0.69	 
y(0,2,2) = 0.34	 y(2,0,2) = 0.66	 
y(0,3,2) = 0.67	 y(3,0,2) = 0.33	 
y(1,2,2) = 0.97	 y(2,1,2) = 0.03	 
y(1,3,2) = 1.00	 y(3,1,2) = 0.00	 
y(2,3,2) = 0.88	 y(3,2,2) = 0.12	 
y(0,1,3) = 0.00	 y(1,0,3) = 1.00	 
y(0,2,3) = 0.19	 y(2,0,3) = 0.81	 
y(0,3,3) = 0.19	 y(3,0,3) = 0.81	 
y(1,2,3) = 0.99	 y(2,1,3) = 0.01	 
y(1,3,3) = 0.45	 y(3,1,3) = 0.55	 
y(2,3,3) = 0.04	 y(3,2,3) = 0.96	 
obj:  0.9999999999989989
erro
[(1, 3), (0, 0), (3, 3), (3, 0), (3, 1), (2, 3), (1, 0), (1, 1)]
cliques:  0 mip: 81
C:  31.277220820424212
x(0,0) = 0.90	 x(0,1) = 19.32	 x(0,2) = 12.95	 x(0,3) = 11.95	 
x(1,0) = 0.98	 x(1,1) = 8.98	 x(1,2) = 13.98	 x(1,3) = 1.98	 
x(2,0) = 29.55	 x(2,1) = 22.55	 x(2,2) = 19.55	 x(2,3) = 10.55	 
x(3,0) = 11.95	 x(3,1) = 1.95	 x(3,2) = 20.95	 x(3,3) = 8.95	 
y(0,1,0) = 0.04	 y(1,0,0) = 0.96	 
y(0,2,0) = 0.84	 y(2,0,0) = 0.16	 
y(0,3,0) = 1.00	 y(3,0,0) = 0.00	 
y(1,2,0) = 0.98	 y(2,1,0) = 0.02	 
y(1,3,0) = 0.95	 y(3,1,0) = 0.05	 
y(2,3,0) = 0.03	 y(3,2,0) = 0.97	 
y(0,1,1) = 0.00	 y(1,0,1) = 1.00	 
y(0,2,1) = 0.58	 y(2,0,1) = 0.42	 
y(0,3,1) = 0.00	 y(3,0,1) = 1.00	 
y(1,2,1) = 0.94	 y(2,1,1) = 0.06	 
y(1,3,1) = 0.00	 y(3,1,1) = 1.00	 
y(2,3,1) = 0.00	 y(3,2,1) = 1.00	 
y(0,1,2) = 0.79	 y(1,0,2) = 0.21	 
y(0,2,2) = 0.38	 y(2,0,2) = 0.62	 
y(0,3,2) = 0.97	 y(3,0,2) = 0.03	 
y(1,2,2) = 0.93	 y(2,1,2) = 0.07	 
y(1,3,2) = 0.96	 y(3,1,2) = 0.04	 
y(2,3,2) = 0.35	 y(3,2,2) = 0.65	 
y(0,1,3) = 0.00	 y(1,0,3) = 1.00	 
y(0,2,3) = 0.33	 y(2,0,3) = 0.67	 
y(0,3,3) = 0.00	 y(3,0,3) = 1.00	 
y(1,2,3) = 0.88	 y(2,1,3) = 0.12	 
y(1,3,3) = 0.91	 y(3,1,3) = 0.09	 
y(2,3,3) = 0.10	 y(3,2,3) = 0.90	 
obj:  0.8287282877669275
solutions:  1
+ 0.022759601706970157x(1,2) + 0.017780938833570396x(3,2) + 0.010668563300142245x(0,2) 
[(0, 1), (1, 2), (3, 2), (3, 1), (2, 1), (1, 1), (2, 2), (0, 2)]
cliques:  1 mip: 75
C:  32.50773195876289
x(0,0) = 0.51	 x(0,1) = 25.51	 x(0,2) = 19.51	 x(0,3) = 18.51	 
x(1,0) = 4.92	 x(1,1) = 12.92	 x(1,2) = 18.78	 x(1,3) = 5.92	 
x(2,0) = 25.89	 x(2,1) = 18.89	 x(2,2) = 15.89	 x(2,3) = 5.80	 
x(3,0) = 11.50	 x(3,1) = 1.50	 x(3,2) = 20.50	 x(3,3) = 8.50	 
y(0,1,0) = 0.23	 y(1,0,0) = 0.77	 
y(0,2,0) = 0.66	 y(2,0,0) = 0.34	 
y(0,3,0) = 1.00	 y(3,0,0) = 0.00	 
y(1,2,0) = 0.55	 y(2,1,0) = 0.45	 
y(1,3,0) = 0.70	 y(3,1,0) = 0.30	 
y(2,3,0) = 0.22	 y(3,2,0) = 0.78	 
y(0,1,1) = 0.00	 y(1,0,1) = 1.00	 
y(0,2,1) = 0.01	 y(2,0,1) = 0.99	 
y(0,3,1) = 0.00	 y(3,0,1) = 1.00	 
y(1,2,1) = 0.55	 y(2,1,1) = 0.45	 
y(1,3,1) = 0.00	 y(3,1,1) = 1.00	 
y(2,3,1) = 0.00	 y(3,2,1) = 1.00	 
y(0,1,2) = 0.63	 y(1,0,2) = 0.37	 
y(0,2,2) = 0.24	 y(2,0,2) = 0.76	 
y(0,3,2) = 0.72	 y(3,0,2) = 0.28	 
y(1,2,2) = 0.69	 y(2,1,2) = 0.31	 
y(1,3,2) = 0.75	 y(3,1,2) = 0.25	 
y(2,3,2) = 1.00	 y(3,2,2) = 0.00	 
y(0,1,3) = 0.00	 y(1,0,3) = 1.00	 
y(0,2,3) = 0.00	 y(2,0,3) = 1.00	 
y(0,3,3) = 0.00	 y(3,0,3) = 1.00	 
y(1,2,3) = 0.28	 y(2,1,3) = 0.72	 
y(1,3,3) = 0.45	 y(3,1,3) = 0.55	 
y(2,3,3) = 0.23	 y(3,2,3) = 0.77	 
obj:  0.9678043160775918
solutions:  1
+ 0.07017543859649122x(1,3) + 0.6759545923632613x(0,0) + 0.0175438596491228x(3,3) + 0.010319917440660471x(2,3) 
[(1, 3), (0, 0), (3, 3), (3, 0), (3, 1), (2, 3), (1, 0), (1, 1)]
cliques:  1 mip: 87
C:  33.70833232947432
x(0,0) = 3.87	 x(0,1) = 26.71	 x(0,2) = 20.71	 x(0,3) = 19.71	 
x(1,0) = 1.22	 x(1,1) = 9.59	 x(1,2) = 15.71	 x(1,3) = 2.22	 
x(2,0) = 28.22	 x(2,1) = 21.22	 x(2,2) = 18.22	 x(2,3) = 9.22	 
x(3,0) = 12.59	 x(3,1) = 2.59	 x(3,2) = 23.71	 x(3,3) = 9.59	 
y(0,1,0) = 0.00	 y(1,0,0) = 1.00	 
y(0,2,0) = 0.58	 y(2,0,0) = 0.42	 
y(0,3,0) = 0.94	 y(3,0,0) = 0.06	 
y(1,2,0) = 0.91	 y(2,1,0) = 0.09	 
y(1,3,0) = 0.86	 y(3,1,0) = 0.14	 
y(2,3,0) = 0.22	 y(3,2,0) = 0.78	 
y(0,1,1) = 0.03	 y(1,0,1) = 0.97	 
y(0,2,1) = 0.06	 y(2,0,1) = 0.94	 
y(0,3,1) = 0.00	 y(3,0,1) = 1.00	 
y(1,2,1) = 0.70	 y(2,1,1) = 0.30	 
y(1,3,1) = 0.00	 y(3,1,1) = 1.00	 
y(2,3,1) = 0.00	 y(3,2,1) = 1.00	 
y(0,1,2) = 0.09	 y(1,0,2) = 0.91	 
y(0,2,2) = 0.07	 y(2,0,2) = 0.93	 
y(0,3,2) = 0.39	 y(3,0,2) = 0.61	 
y(1,2,2) = 0.84	 y(2,1,2) = 0.16	 
y(1,3,2) = 1.00	 y(3,1,2) = 0.00	 
y(2,3,2) = 1.00	 y(3,2,2) = 0.00	 
y(0,1,3) = 0.00	 y(1,0,3) = 1.00	 
y(0,2,3) = 0.00	 y(2,0,3) = 1.00	 
y(0,3,3) = 0.00	 y(3,0,3) = 1.00	 
y(1,2,3) = 1.00	 y(2,1,3) = 0.00	 
y(1,3,3) = 0.52	 y(3,1,3) = 0.48	 
y(2,3,3) = 0.13	 y(3,2,3) = 0.87	 
obj:  1.0010540031380424
erro
[(1, 3), (0, 0), (3, 3), (3, 0), (3, 1), (2, 3), (1, 0), (1, 1)]
cliques:  0 mip: 86
C:  34.238262354692985
x(0,0) = 6.99	 x(0,1) = 24.30	 x(0,2) = 17.99	 x(0,3) = 16.99	 
x(1,0) = 3.76	 x(1,1) = 11.76	 x(1,2) = 16.76	 x(1,3) = 4.76	 
x(2,0) = 30.09	 x(2,1) = 23.09	 x(2,2) = 16.35	 x(2,3) = 7.35	 
x(3,0) = 12.07	 x(3,1) = 1.05	 x(3,2) = 23.99	 x(3,3) = 8.05	 
y(0,1,0) = 0.00	 y(1,0,0) = 1.00	 
y(0,2,0) = 0.60	 y(2,0,0) = 0.40	 
y(0,3,0) = 0.75	 y(3,0,0) = 0.25	 
y(1,2,0) = 0.92	 y(2,1,0) = 0.08	 
y(1,3,0) = 0.70	 y(3,1,0) = 0.30	 
y(2,3,0) = 0.17	 y(3,2,0) = 0.83	 
y(0,1,1) = 0.00	 y(1,0,1) = 1.00	 
y(0,2,1) = 0.22	 y(2,0,1) = 0.78	 
y(0,3,1) = 0.00	 y(3,0,1) = 1.00	 
y(1,2,1) = 0.72	 y(2,1,1) = 0.28	 
y(1,3,1) = 0.00	 y(3,1,1) = 1.00	 
y(2,3,1) = 0.00	 y(3,2,1) = 1.00	 
y(0,1,2) = 0.70	 y(1,0,2) = 0.30	 
y(0,2,2) = 0.11	 y(2,0,2) = 0.89	 
y(0,3,2) = 1.00	 y(3,0,2) = 0.00	 
y(1,2,2) = 0.76	 y(2,1,2) = 0.24	 
y(1,3,2) = 0.97	 y(3,1,2) = 0.03	 
y(2,3,2) = 1.00	 y(3,2,2) = 0.00	 
y(0,1,3) = 0.00	 y(1,0,3) = 1.00	 
y(0,2,3) = 0.00	 y(2,0,3) = 1.00	 
y(0,3,3) = 0.00	 y(3,0,3) = 1.00	 
y(1,2,3) = 0.53	 y(2,1,3) = 0.47	 
y(1,3,3) = 0.26	 y(3,1,3) = 0.74	 
y(2,3,3) = 0.26	 y(3,2,3) = 0.74	 
obj:  0.9699890768271875
solutions:  1
+ 0.006167400881057264x(1,3) + 0.10102790014684286x(3,3) + 0.015271659324522777x(2,3) + 0.0008810572687224725x(0,3) 
[(1, 3), (0, 0), (3, 3), (3, 0), (2, 3), (1, 0), (0, 3)]
cliques:  1 mip: 93
C:  34.99999610302875
x(0,0) = 6.99	 x(0,1) = 28.00	 x(0,2) = 19.52	 x(0,3) = 18.52	 
x(1,0) = 1.58	 x(1,1) = 12.31	 x(1,2) = 17.31	 x(1,3) = 2.58	 
x(2,0) = 28.62	 x(2,1) = 21.62	 x(2,2) = 18.62	 x(2,3) = 8.06	 
x(3,0) = 15.31	 x(3,1) = 5.31	 x(3,2) = 24.31	 x(3,3) = 12.31	 
y(0,1,0) = 0.00	 y(1,0,0) = 1.00	 
y(0,2,0) = 0.65	 y(2,0,0) = 0.35	 
y(0,3,0) = 0.92	 y(3,0,0) = 0.08	 
y(1,2,0) = 0.88	 y(2,1,0) = 0.12	 
y(1,3,0) = 0.81	 y(3,1,0) = 0.19	 
y(2,3,0) = 0.27	 y(3,2,0) = 0.73	 
y(0,1,1) = 0.00	 y(1,0,1) = 1.00	 
y(0,2,1) = 0.02	 y(2,0,1) = 0.98	 
y(0,3,1) = 0.00	 y(3,0,1) = 1.00	 
y(1,2,1) = 0.60	 y(2,1,1) = 0.40	 
y(1,3,1) = 0.00	 y(3,1,1) = 1.00	 
y(2,3,1) = 0.00	 y(3,2,1) = 1.00	 
y(0,1,2) = 0.27	 y(1,0,2) = 0.73	 
y(0,2,2) = 0.08	 y(2,0,2) = 0.92	 
y(0,3,2) = 0.91	 y(3,0,2) = 0.09	 
y(1,2,2) = 0.81	 y(2,1,2) = 0.19	 
y(1,3,2) = 0.91	 y(3,1,2) = 0.09	 
y(2,3,2) = 1.00	 y(3,2,2) = 0.00	 
y(0,1,3) = 0.00	 y(1,0,3) = 1.00	 
y(0,2,3) = 0.00	 y(2,0,3) = 1.00	 
y(0,3,3) = 0.00	 y(3,0,3) = 1.00	 
y(1,2,3) = 0.50	 y(2,1,3) = 0.50	 
y(1,3,3) = 0.64	 y(3,1,3) = 0.36	 
y(2,3,3) = 0.59	 y(3,2,3) = 0.41	 
obj:  0.9999999999999999
erro
[(1, 3), (0, 0), (3, 3), (3, 0), (2, 3), (1, 0), (0, 3)]
cliques:  0 mip: 95
C:  34.99999610302875
x(0,0) = 6.99	 x(0,1) = 28.00	 x(0,2) = 19.52	 x(0,3) = 18.52	 
x(1,0) = 1.58	 x(1,1) = 12.31	 x(1,2) = 17.31	 x(1,3) = 2.58	 
x(2,0) = 28.62	 x(2,1) = 21.62	 x(2,2) = 18.62	 x(2,3) = 8.06	 
x(3,0) = 15.31	 x(3,1) = 5.31	 x(3,2) = 24.31	 x(3,3) = 12.31	 
y(0,1,0) = 0.00	 y(1,0,0) = 1.00	 
y(0,2,0) = 0.65	 y(2,0,0) = 0.35	 
y(0,3,0) = 0.92	 y(3,0,0) = 0.08	 
y(1,2,0) = 0.88	 y(2,1,0) = 0.12	 
y(1,3,0) = 0.81	 y(3,1,0) = 0.19	 
y(2,3,0) = 0.27	 y(3,2,0) = 0.73	 
y(0,1,1) = 0.00	 y(1,0,1) = 1.00	 
y(0,2,1) = 0.02	 y(2,0,1) = 0.98	 
y(0,3,1) = 0.00	 y(3,0,1) = 1.00	 
y(1,2,1) = 0.60	 y(2,1,1) = 0.40	 
y(1,3,1) = 0.00	 y(3,1,1) = 1.00	 
y(2,3,1) = 0.00	 y(3,2,1) = 1.00	 
y(0,1,2) = 0.27	 y(1,0,2) = 0.73	 
y(0,2,2) = 0.08	 y(2,0,2) = 0.92	 
y(0,3,2) = 0.91	 y(3,0,2) = 0.09	 
y(1,2,2) = 0.81	 y(2,1,2) = 0.19	 
y(1,3,2) = 0.91	 y(3,1,2) = 0.09	 
y(2,3,2) = 1.00	 y(3,2,2) = 0.00	 
y(0,1,3) = 0.00	 y(1,0,3) = 1.00	 
y(0,2,3) = 0.00	 y(2,0,3) = 1.00	 
y(0,3,3) = 0.00	 y(3,0,3) = 1.00	 
y(1,2,3) = 0.50	 y(2,1,3) = 0.50	 
y(1,3,3) = 0.64	 y(3,1,3) = 0.36	 
y(2,3,3) = 0.59	 y(3,2,3) = 0.41	 
obj:  1.0000000000000002
erro
[(1, 3), (0, 0), (3, 3), (3, 0), (2, 3), (1, 0), (0, 3)]
cliques:  0 mip: 92
C:  34.99999610302875
x(0,0) = 6.99	 x(0,1) = 28.00	 x(0,2) = 19.52	 x(0,3) = 18.52	 
x(1,0) = 1.58	 x(1,1) = 12.31	 x(1,2) = 17.31	 x(1,3) = 2.58	 
x(2,0) = 28.62	 x(2,1) = 21.62	 x(2,2) = 18.62	 x(2,3) = 8.06	 
x(3,0) = 15.31	 x(3,1) = 5.31	 x(3,2) = 24.31	 x(3,3) = 12.31	 
y(0,1,0) = 0.00	 y(1,0,0) = 1.00	 
y(0,2,0) = 0.65	 y(2,0,0) = 0.35	 
y(0,3,0) = 0.92	 y(3,0,0) = 0.08	 
y(1,2,0) = 0.88	 y(2,1,0) = 0.12	 
y(1,3,0) = 0.81	 y(3,1,0) = 0.19	 
y(2,3,0) = 0.27	 y(3,2,0) = 0.73	 
y(0,1,1) = 0.00	 y(1,0,1) = 1.00	 
y(0,2,1) = 0.02	 y(2,0,1) = 0.98	 
y(0,3,1) = 0.00	 y(3,0,1) = 1.00	 
y(1,2,1) = 0.60	 y(2,1,1) = 0.40	 
y(1,3,1) = 0.00	 y(3,1,1) = 1.00	 
y(2,3,1) = 0.00	 y(3,2,1) = 1.00	 
y(0,1,2) = 0.27	 y(1,0,2) = 0.73	 
y(0,2,2) = 0.08	 y(2,0,2) = 0.92	 
y(0,3,2) = 0.91	 y(3,0,2) = 0.09	 
y(1,2,2) = 0.81	 y(2,1,2) = 0.19	 
y(1,3,2) = 0.91	 y(3,1,2) = 0.09	 
y(2,3,2) = 1.00	 y(3,2,2) = 0.00	 
y(0,1,3) = 0.00	 y(1,0,3) = 1.00	 
y(0,2,3) = 0.00	 y(2,0,3) = 1.00	 
y(0,3,3) = 0.00	 y(3,0,3) = 1.00	 
y(1,2,3) = 0.50	 y(2,1,3) = 0.50	 
y(1,3,3) = 0.64	 y(3,1,3) = 0.36	 
y(2,3,3) = 0.59	 y(3,2,3) = 0.41	 
obj:  1.0000000000000002
erro
[(1, 3), (0, 0), (3, 3), (3, 0), (2, 3), (1, 0), (0, 3)]
cliques:  0 mip: 92
C:  34.99999610302875
x(0,0) = 6.99	 x(0,1) = 28.00	 x(0,2) = 19.52	 x(0,3) = 18.52	 
x(1,0) = 1.58	 x(1,1) = 12.31	 x(1,2) = 17.31	 x(1,3) = 2.58	 
x(2,0) = 28.62	 x(2,1) = 21.62	 x(2,2) = 18.62	 x(2,3) = 8.06	 
x(3,0) = 15.31	 x(3,1) = 5.31	 x(3,2) = 24.31	 x(3,3) = 12.31	 
y(0,1,0) = 0.00	 y(1,0,0) = 1.00	 
y(0,2,0) = 0.65	 y(2,0,0) = 0.35	 
y(0,3,0) = 0.92	 y(3,0,0) = 0.08	 
y(1,2,0) = 0.88	 y(2,1,0) = 0.12	 
y(1,3,0) = 0.81	 y(3,1,0) = 0.19	 
y(2,3,0) = 0.27	 y(3,2,0) = 0.73	 
y(0,1,1) = 0.00	 y(1,0,1) = 1.00	 
y(0,2,1) = 0.02	 y(2,0,1) = 0.98	 
y(0,3,1) = 0.00	 y(3,0,1) = 1.00	 
y(1,2,1) = 0.60	 y(2,1,1) = 0.40	 
y(1,3,1) = 0.00	 y(3,1,1) = 1.00	 
y(2,3,1) = 0.00	 y(3,2,1) = 1.00	 
y(0,1,2) = 0.27	 y(1,0,2) = 0.73	 
y(0,2,2) = 0.08	 y(2,0,2) = 0.92	 
y(0,3,2) = 0.91	 y(3,0,2) = 0.09	 
y(1,2,2) = 0.81	 y(2,1,2) = 0.19	 
y(1,3,2) = 0.91	 y(3,1,2) = 0.09	 
y(2,3,2) = 1.00	 y(3,2,2) = 0.00	 
y(0,1,3) = 0.00	 y(1,0,3) = 1.00	 
y(0,2,3) = 0.00	 y(2,0,3) = 1.00	 
y(0,3,3) = 0.00	 y(3,0,3) = 1.00	 
y(1,2,3) = 0.50	 y(2,1,3) = 0.50	 
y(1,3,3) = 0.64	 y(3,1,3) = 0.36	 
y(2,3,3) = 0.59	 y(3,2,3) = 0.41	 
obj:  1.0000000000000002
erro
[(1, 3), (0, 0), (3, 3), (3, 0), (2, 3), (1, 0), (0, 3)]
cliques:  0 mip: 92
C:  34.99999610302875
x(0,0) = 6.99	 x(0,1) = 28.00	 x(0,2) = 19.52	 x(0,3) = 18.52	 
x(1,0) = 1.58	 x(1,1) = 12.31	 x(1,2) = 17.31	 x(1,3) = 2.58	 
x(2,0) = 28.62	 x(2,1) = 21.62	 x(2,2) = 18.62	 x(2,3) = 8.06	 
x(3,0) = 15.31	 x(3,1) = 5.31	 x(3,2) = 24.31	 x(3,3) = 12.31	 
y(0,1,0) = 0.00	 y(1,0,0) = 1.00	 
y(0,2,0) = 0.65	 y(2,0,0) = 0.35	 
y(0,3,0) = 0.92	 y(3,0,0) = 0.08	 
y(1,2,0) = 0.88	 y(2,1,0) = 0.12	 
y(1,3,0) = 0.81	 y(3,1,0) = 0.19	 
y(2,3,0) = 0.27	 y(3,2,0) = 0.73	 
y(0,1,1) = 0.00	 y(1,0,1) = 1.00	 
y(0,2,1) = 0.02	 y(2,0,1) = 0.98	 
y(0,3,1) = 0.00	 y(3,0,1) = 1.00	 
y(1,2,1) = 0.60	 y(2,1,1) = 0.40	 
y(1,3,1) = 0.00	 y(3,1,1) = 1.00	 
y(2,3,1) = 0.00	 y(3,2,1) = 1.00	 
y(0,1,2) = 0.27	 y(1,0,2) = 0.73	 
y(0,2,2) = 0.08	 y(2,0,2) = 0.92	 
y(0,3,2) = 0.91	 y(3,0,2) = 0.09	 
y(1,2,2) = 0.81	 y(2,1,2) = 0.19	 
y(1,3,2) = 0.91	 y(3,1,2) = 0.09	 
y(2,3,2) = 1.00	 y(3,2,2) = 0.00	 
y(0,1,3) = 0.00	 y(1,0,3) = 1.00	 
y(0,2,3) = 0.00	 y(2,0,3) = 1.00	 
y(0,3,3) = 0.00	 y(3,0,3) = 1.00	 
y(1,2,3) = 0.50	 y(2,1,3) = 0.50	 
y(1,3,3) = 0.64	 y(3,1,3) = 0.36	 
y(2,3,3) = 0.59	 y(3,2,3) = 0.41	 
obj:  1.0000000000000002
erro
[(1, 3), (0, 0), (3, 3), (3, 0), (2, 3), (1, 0), (0, 3)]
cliques:  0 mip: 92
C:  34.99999610302875
x(0,0) = 6.99	 x(0,1) = 28.00	 x(0,2) = 19.52	 x(0,3) = 18.52	 
x(1,0) = 1.58	 x(1,1) = 12.31	 x(1,2) = 17.31	 x(1,3) = 2.58	 
x(2,0) = 28.62	 x(2,1) = 21.62	 x(2,2) = 18.62	 x(2,3) = 8.06	 
x(3,0) = 15.31	 x(3,1) = 5.31	 x(3,2) = 24.31	 x(3,3) = 12.31	 
y(0,1,0) = 0.00	 y(1,0,0) = 1.00	 
y(0,2,0) = 0.65	 y(2,0,0) = 0.35	 
y(0,3,0) = 0.92	 y(3,0,0) = 0.08	 
y(1,2,0) = 0.88	 y(2,1,0) = 0.12	 
y(1,3,0) = 0.81	 y(3,1,0) = 0.19	 
y(2,3,0) = 0.27	 y(3,2,0) = 0.73	 
y(0,1,1) = 0.00	 y(1,0,1) = 1.00	 
y(0,2,1) = 0.02	 y(2,0,1) = 0.98	 
y(0,3,1) = 0.00	 y(3,0,1) = 1.00	 
y(1,2,1) = 0.60	 y(2,1,1) = 0.40	 
y(1,3,1) = 0.00	 y(3,1,1) = 1.00	 
y(2,3,1) = 0.00	 y(3,2,1) = 1.00	 
y(0,1,2) = 0.27	 y(1,0,2) = 0.73	 
y(0,2,2) = 0.08	 y(2,0,2) = 0.92	 
y(0,3,2) = 0.91	 y(3,0,2) = 0.09	 
y(1,2,2) = 0.81	 y(2,1,2) = 0.19	 
y(1,3,2) = 0.91	 y(3,1,2) = 0.09	 
y(2,3,2) = 1.00	 y(3,2,2) = 0.00	 
y(0,1,3) = 0.00	 y(1,0,3) = 1.00	 
y(0,2,3) = 0.00	 y(2,0,3) = 1.00	 
y(0,3,3) = 0.00	 y(3,0,3) = 1.00	 
y(1,2,3) = 0.50	 y(2,1,3) = 0.50	 
y(1,3,3) = 0.64	 y(3,1,3) = 0.36	 
y(2,3,3) = 0.59	 y(3,2,3) = 0.41	 
obj:  1.0000000000000002
erro
[(1, 3), (0, 0), (3, 3), (3, 0), (2, 3), (1, 0), (0, 3)]
cliques:  0 mip: 0
iterações: 14 cortes cliques encontrados: 7 mip: 1052 objective:  34.99999610302875
Coin0506I Presolve 157 (-171) rows, 90 (-71) columns and 490 (-260) elements
Clp1000I sum of infeasibilities 1.79124e-08 - average 1.14092e-10, 0 fixed columns
Coin0506I Presolve 157 (0) rows, 90 (0) columns and 490 (0) elements
Clp0029I End of values pass after 90 iterations
Clp0000I Optimal - objective value 29
Clp0000I Optimal - objective value 29
Coin0511I After Postsolve, objective 29, infeasibilities - dual 0 (0), primal 0 (0)
Clp0000I Optimal - objective value 29
Clp0000I Optimal - objective value 29
Clp0000I Optimal - objective value 29
Coin0511I After Postsolve, objective 29, infeasibilities - dual 0 (0), primal 0 (0)
Clp0032I Optimal objective 29 - 0 iterations time 0.022, Presolve 0.00, Idiot 0.02
Coin3009W Conflict graph built in 0.000 seconds, density: 0.091%
